p cnf 82 190
a 8 2 15 9 3 16 1 7 14 21 28 38 32 60 51 42 47 56 0
d 43 2 3 0
d 61 51 56 0
d 71 38 60 0
d 52 42 47 0
d 4 2 3 0
d 5 1 2 3 0
d 6 1 2 3 0
d 10 8 9 0
d 11 7 8 9 0
d 12 7 8 9 0
d 13 1 2 3 7 8 9 0
d 17 15 16 0
d 18 14 15 16 0
d 19 14 15 16 0
d 20 1 2 3 7 8 9 14 15 16 0
d 22 1 7 0
d 23 2 3 0
d 24 1 7 2 3 0
d 25 21 1 7 2 3 0
d 26 21 1 7 2 3 0
d 27 1 2 3 7 8 9 14 15 16 21 0
d 29 28 8 9 0
d 30 28 8 9 0
d 31 1 2 3 7 8 9 14 15 16 21 28 0
d 33 15 16 0
d 34 15 16 0
d 35 32 15 16 0
d 36 32 15 16 0
d 37 1 2 3 7 8 9 14 15 16 21 28 32 0
d 39 38 32 0
d 40 38 32 0
d 41 1 2 3 7 8 9 14 15 16 21 28 32 38 0
d 44 42 2 3 0
d 45 42 2 3 0
d 46 1 2 3 7 8 9 14 15 16 21 28 32 38 42 0
d 48 47 28 0
d 49 47 28 0
d 50 1 2 3 7 8 9 14 15 16 21 28 32 38 42 47 0
d 53 51 42 47 0
d 54 51 42 47 0
d 55 1 2 3 7 8 9 14 15 16 21 28 32 38 42 47 51 0
d 57 56 2 3 0
d 58 56 2 3 0
d 59 1 2 3 7 8 9 14 15 16 21 28 32 38 42 47 51 56 0
d 62 60 51 56 0
d 63 60 51 56 0
d 64 1 2 3 7 8 9 14 15 16 21 28 32 38 42 47 51 56 60 0
d 65 8 9 0
d 66 8 9 0
d 67 2 3 28 0
d 68 1 7 0
d 69 2 3 28 1 7 0
d 70 8 9 2 3 28 1 7 0
d 72 14 21 0
d 73 38 60 14 21 0
d 74 8 9 2 3 28 1 7 38 60 14 21 0
d 75 32 51 56 0
d 76 15 16 0
d 77 32 51 56 15 16 0
d 78 14 21 0
d 79 14 21 15 16 0
d 80 32 51 56 15 16 14 21 0
d 81 8 9 2 3 28 1 7 38 60 14 21 32 51 56 15 16 0
d 82 1 2 3 7 8 9 14 15 16 21 28 32 38 42 47 51 56 60 0
4 -2 3 0
4 2 -3 0
-4 -2 -3 0
-4 2 3 0
5 -1 -4 0
5 1 4 0
-5 -1 4 0
-5 1 -4 0
6 5 0
-6 -5 0
10 -8 9 0
10 8 -9 0
-10 -8 -9 0
-10 8 9 0
11 -7 -10 0
11 7 10 0
-11 -7 10 0
-11 7 -10 0
12 11 0
-12 -11 0
13 -6 0
13 -12 0
-13 6 12 0
17 -15 16 0
17 15 -16 0
-17 -15 -16 0
-17 15 16 0
18 -14 -17 0
18 14 17 0
-18 -14 17 0
-18 14 -17 0
19 18 0
-19 -18 0
20 -13 0
20 -19 0
-20 13 19 0
-22 1 0
-22 7 0
22 -1 -7 0
-23 2 0
-23 3 0
23 -2 -3 0
24 -22 0
24 -23 0
-24 22 23 0
25 -21 -24 0
25 21 24 0
-25 -21 24 0
-25 21 -24 0
26 25 0
-26 -25 0
27 -20 0
27 -26 0
-27 20 26 0
29 -28 -10 0
29 28 10 0
-29 -28 10 0
-29 28 -10 0
30 29 0
-30 -29 0
31 -27 0
31 -30 0
-31 27 30 0
33 -15 0
33 -16 0
-33 15 16 0
34 33 0
-34 -33 0
35 -32 -34 0
35 32 34 0
-35 -32 34 0
-35 32 -34 0
36 35 0
-36 -35 0
37 -31 0
37 -36 0
-37 31 36 0
39 -38 -32 0
39 38 32 0
-39 -38 32 0
-39 38 -32 0
40 39 0
-40 -39 0
41 -37 0
41 -40 0
-41 37 40 0
44 -42 -43 0
44 42 43 0
-44 -42 43 0
-44 42 -43 0
45 44 0
-45 -44 0
46 -41 0
46 -45 0
-46 41 45 0
48 -47 -28 0
48 47 28 0
-48 -47 28 0
-48 47 -28 0
49 48 0
-49 -48 0
50 -46 0
50 -49 0
-50 46 49 0
53 -51 -52 0
53 51 52 0
-53 -51 52 0
-53 51 -52 0
54 53 0
-54 -53 0
55 -50 0
55 -54 0
-55 50 54 0
57 -56 -23 0
57 56 23 0
-57 -56 23 0
-57 56 -23 0
58 57 0
-58 -57 0
59 -55 0
59 -58 0
-59 55 58 0
62 -60 -61 0
62 60 61 0
-62 -60 61 0
-62 60 -61 0
63 62 0
-63 -62 0
64 -59 0
64 -63 0
-64 59 63 0
-65 8 0
-65 9 0
65 -8 -9 0
66 -65 -65 0
66 65 65 0
-66 -65 65 0
-66 65 -65 0
67 -43 28 0
67 43 -28 0
-67 -43 -28 0
-67 43 28 0
68 -1 7 0
68 1 -7 0
-68 -1 -7 0
-68 1 7 0
69 -67 -68 0
69 67 68 0
-69 -67 68 0
-69 67 -68 0
-70 66 0
-70 69 0
70 -66 -69 0
72 -14 21 0
72 14 -21 0
-72 -14 -21 0
-72 14 21 0
73 -71 -72 0
73 71 72 0
-73 -71 72 0
-73 71 -72 0
-74 70 0
-74 73 0
74 -70 -73 0
-75 32 0
-75 61 0
75 -32 -61 0
-76 15 0
-76 16 0
76 -15 -16 0
77 -75 0
77 -76 0
-77 75 76 0
-78 14 0
-78 21 0
78 -14 -21 0
79 -78 0
79 -76 0
-79 78 76 0
80 -77 -79 0
80 77 79 0
-80 -77 79 0
-80 77 -79 0
-81 74 0
-81 80 0
81 -74 -80 0
82 -64 0
82 -81 0
-82 64 81 0
82 0
